24862,
22882,
22415,
22229,
20902,
20902,
20902,
20902,
20114,
19843,
19462,
19256,
18605,
18378,
17765,
17328,
17152,
17027,
16802,
16788,
15578,
15553,
14985,
14569,
14344,
14203,
14196,
14017,
14009,
14009,
14009,
14009,
14009,
14009,
14009,
14009,
14009,
14009,
14009,
14009,
14009,
14009,
14009,
14009,
14009,
13930,
13930,
13930,
13930,
13930,
13930,
13930,
13930,
13930,
13930,
13930,
13930,
13930,
13930,
13930,
13930,
13930,
13930,
13930,
13930,
13930,
13930,
13930,
13930,
13930,
13930,
13930,
13930,
13930,
13930,
13930,
13930,
13930,
13930,
13930,
13930,
13930,
13930,
13930,
13930,
13930,
13930,
13930,
13930,
13930,
13930,
13879,
13879,
13879,
13879,
13879,
13879,
13879,
13879,
13879,
13879,
13879,
13879,
13879,
13879,
13879,
13879,
13879,
13879,
13879,
13879,
13879,
13879,
13879,
13879,
13846,
13814,
13814,
13814,
13814,
13742,
13742,
13742,
13742,
13742,
13742,
13742,
13742,
13742,
13742,
13742,
13742,
13742,
13742,
13721,
13721,
13721,
13721,
13721,
13721,
13721,
13677,
13677,
13677,
13677,
13677,
13677,
13677,
13677,
13677,
13677,
13677,
13677,
13677,
13677,
13677,
13677,
13677,
13677,
13677,
13672,
13672,
13672,
13672,
13672,
13672,
13672,
13672,
13672,
13672,
13672,
13672,
13672,
13672,
13606,
13606,
13606,
13606,
13606,
13606,
13606,
13606,
13590,
13590,
13590,
13590,
13590,
13590,
13578,
13578,
13578,
13578,
13578,
13578,
13578,
13578,
13578,
13578,
13578,
13578,
13578,
13576,
13576,
13576,
13576,
13576,
13576,
13576,
13576,
13513,
13513,
13513,
13513,
13513,
13513,
13513,
13513,
13513,
13513,
13513,
13513,
13513,
13513,
13513,
13363,
13363,
13363,
13363,
13363,
13363,
13363,
13363,
13363,
13363,
13363,
13363,
13363,
13311,
13311,
13311,
13311,
13311,
13311,
13311,
13311,
13311,
13311,
13311,
13311,
13311,
13311,
13311,
13311,
13311,
13311,
13311,
13311,
13287,
13287,
13287,
13287,
13287,
13287,
13287,
13287,
13287,
13287,
13287,
13287,
13287,
13287,
13287,
13287,
13287,
13278,
13278,
13278,
13278,
13278,
13278,
13278,
13278,
13278,
13278,
13278,
13278,
13278,
13278,
13278,
13278,
13278,
13278,
13278,
13278,
13278,
13278,
13278,
13278,
13278,
13278,
13149,
13149,
13149,
13149,
13149,
13149,
13135,
13135,
13135,
13135,
13135,
13135,
13135,
13135,
13135,
13135,
13135,
13135,
13135,
13135,
13135,
13135,
13135,
13135,
13135,
13135,
13135,
13135,
13135,
13135,
13135,
13135,
13135,
13135,
13135,
13135,
13135,
13135,
13135,
13135,
13135,
13135,
13135,
13135,
13135,
13135,
13135,
12946,
12946,
12946,
12946,
12946,
12946,
12946,
12946,
12946,
12946,
12946,
12946,
12946,
12946,
12946,
12946,
12946,
12946,
12946,
12946,
12946,
12946,
12946,
12946,
12946,
12946,
12946,
12946,
12946,
12946,
12946,
12946,
12946,
12946,
12946,
12946,
12946,
12946,
12946,
12946,
12946,
12946,
12946,
12946,
12946,
12946,
12946,
12946,
12946,
12946,
12946,
12946,
12946,
12946,
12946,
12946,
12946,
12946,
12946,
12946,
12946,
12946,
12946,
12946,
12946,
12946,
12946,
12946,
12946,
12946,
12946,
12946,
12946,
12946,
12946,
12946,
12946,
12946,
12946,
12946,
12946,
12946,
12946,
12946,
12946,
12946,
12946,
12946,
12946,
12946,
12946,
12946,
12946,
12946,
12946,
12946,
12946,
12946,
12946,
12946,
12946,
12946,
12946,
12946,
12946,
12946,
12946,
12946,
12946,
12946,
12946,
12946,
12946,
12946,
12946,
12946,
12946,
12946,
12946,
12946,
12946,
12946,
12946,
12946,
12946,
12946,
12946,
12946,
12946,
12946,
12946,
12946,
12946,
12946,
12946,
12946,
12946,
12946,
12946,
12946,
12946,
12946,
12946,
12946,
12946,
12946,
12897,
12897,
12897,
12897,
12897,
12897,
12897,
12897,
12897,
12897,
12897,
12897,
12897,
12897,
12897,
12897,
12897,
12897,
12897,
12897,
12897,
12897,
12897,
12897,
12897,
12897,
12897,
12897,
12897,
12897,
12897,
12897,
12897,
12897,
12897,
12897,
12897,
12897,
12897,
12897,
12897,
12897,
12897,
12897,
12897,
12897,
12897,
12897,
12897,
12897,
12897,
12897,
12897,
12897,
12897,
12897,
12890,
12890,
12890,
12890,
12890,
12890,
12890,
12890,
12890,
12890,
12890,
12890,
12890,
12890,
12890,
12890,
12890,
12890,
12890,
12890,
12890,
12890,
12890,
12890,
12890,
12890,
12890,
12890,
12890,
12890,
12890,
12890,
12890,
12890,
12890,
12890,
12890,
12890,
12890,
12890,
12890,
12890,
12890,
12890,
12890,
12890,
12890,
12890,
12890,
12890,
12890,
12890,
12890,
12890,
12890,
12890,
12890,
12890,
12890,
12890,
12890,
12890,
12890,
12890,
12890,
12890,
12890,
12890,
12890,
12890,
12890,
12890,
12890,
12890,
12890,
12890,
12890,
12890,
12890,
12890,
12890,
12890,
12890,
12890,
12890,
12890,
12890,
12890,
12890,
12890,
12890,
12890,
12890,
12890,
12890,
12890,
12890,
12890,
12890,
12890,
12802,
12802,
12802,
12802,
12802,
12802,
12802,
12802,
12802,
12802,
12802,
12802,
12802,
12802,
12802,
12802,
12802,
12802,
12802,
12802,
12802,
12802,
12802,
12802,
12802,
12802,
12802,
12802,
12802,
12802,
12802,
12802,
12802,
12802,
12802,
12802,
12802,
12802,
12802,
12802,
12802,
12802,
12802,
12802,
12802,
12802,
12802,
12802,
12802,
12802,
12802,
12802,
12802,
12802,
12802,
12802,
12802,
12802,
12802,
12802,
12802,
12802,
12802,
12802,
12802,
12802,
12802,
12802,
12802,
12802,
12802,
12802,
12802,
12802,
12802,
12802,
12802,
12802,
12802,
12802,
12802,
12802,
12802,
12802,
12802,
12802,
12802,
12802,
12802,
12802,
12802,
12802,
12802,
12802,
12802,
12802,
12796,
12796,
12796,
12796,
12796,
12796,
12796,
12796,
12796,
12796,
12796,
12796,
12796,
12796,
12796,
12796,
12796,
12764,
12764,
12764,
12764,
12764,
12764,
12764,
12764,
12764,
12764,
12764,
12764,
12764,
12764,
12764,
12764,
12764,
12739,
12739,
12739,
12739,
12739,
12739,
12739,
12739,
12739,
12739,
12739,
12739,
12739,
12739,
12739,
12739,
12739,
12739,
12739,
12739,
12739,
12739,
12739,
12739,
12739,
12739,
12739,
12739,
12739,
12739,
12739,
12739,
12739,
12739,
12739,
12739,
12739,
12722,
12722,
12722,
12722,
12722,
12722,
12722,
12722,
12722,
12722,
12722,
12722,
12722,
12722,
12722,
12722,
12722,
12722,
12230,
12230,
12230,
12230,
12230,
11961,
11961,
11961,
11961,
11961,
11961,
11961,
11961,
11961,
11961,
11940,
11940,
11940,
11940,
11940,
11940,
11940,
11940,
11940,
11940,
11940,
11940,
11940,
11940,
11940,
11940,
11940,
11940,
11940,
11940,
11940,
11940,
11940,
11940,
11940,
11940,
11940,
11940,
11940,
11940,
11925,
11925,
11925,
11925,
11925,
11925,
11925,
11925,
11925,
11925,
11925,
11925,
11925,
11925,
11925,
11925,
11925,
11925,
11925,
11925,
11925,
11925,
11925,
11922,
11854,
11851,
11851,
11851,
11851,
11851,
11851,
11851,
11851,
11851,
11851,
11851,
11851,
11851,
11851,
11851,
11851,
11851,
11851,
11851,
11851,
11851,
11851,
11851,
11851,
11851,
11851,
11851,
11851,
11851,
11851,
11851,
11851,
11851,
11851,
11851,
11851,
11851,
11851,
11851,
11851,
11851,
11851,
11851,
11851,
11851,
11851,
11851,
11851,
11851,
11851,
11851,
11851,
11851,
11851,
11851,
11851,
11851,
11851,
11851,
11851,
11851,
11851,
11851,
11851,
11851,
11851,
11851,
11851,
11851,
11851,
11851,
11851,
11851,
11851,
11851,
11851,
11851,
11851,
11851,
11851,
11851,
11851,
11851,
11851,
11851,
11851,
11851,
11851,
11851,
11851,
11851,
11851,
11851,
11851,
11851,
11851,
11851,
11851,
11851,
11851,
11849,
11849,
11849,
11849,
11844,
11844,
11844,
11844,
11844,
11844,
11844,
11844,
11844,
11844,
11844,
11844,
11844,
11844,
11844,
11844,
11844,
11844,
11844,
11844,
11844,
11844,
11844,
11844,
11844,
11844,
11844,
11844,
11844,
11844,
11844,
11844,
11844,
11844,
11844,
11844,
11844,
11844,
11844,
11844,
11844,
11844,
11844,
11844,
11844,
11844,
11844,
11586,
11586,
11586,
11586,
11586,
11586,
11586,
11586,
11586,
11586,
11586,
11586,
11586,
11586,
11586,
11586,
11586,
11586,
11586,
11586,
11586,
11586,
11586,
11586,
11586,
11586,
11586,
11586,
11586,
11586,
11586,
11586,
11586,
11586,
11586,
11586,
11586,
11586,
11586,
11586,
11586,
11586,
11586,
11586,
11586,
11586,
11586,
11586,
11586,
11586,
11586,
11586,
11586,
11586,
11586,
11586,
11586,
11586,
11586,
11586,
11490,
11490,
11490,
11490,
11490,
11490,
11490,
11490,
11490,
11490,
11490,
11490,
11490,
11490,
11490,
11490,
11490,
11490,
11490,
11490,
11490,
11490,
11490,
11490,
11490,
11490,
11490,
11490,
11490,
11432,
11432,
11432,
11432,
11432,
11432,
11432,
11432,
11432,
11432,
11432,
11432,
11432,
11432,
11432,
11432,
11432,
11432,
11432,
11432,
11432,
11432,
11432,
11432,
11432,
11417,
11417,
11417,
11417,
11417,
11417,
11417,
11417,
11417,
11417,
11417,
11417,
11417,
11417,
11417,
11417,
11417,
11417,
11417,
11417,
11417,
11417,
11417,
11417,
11417,
11417,
11417,
11417,
11417,
11417,
11417,
11417,
11417,
11417,
11417,
11417,
11417,
11417,
11417,
11417,
11417,
11417,
11417,
11417,
11417,
11417,
11417,
11417,
11417,
11417,
11417,
11417,
11417,
11417,
11417,
11417,
11417,
11417,
11417,
11417,
11417,
11417,
11417,
11417,
11417,
11417,
11417,
11417,
11417,
11417,
11417,
11417,
11417,
11417,
11417,
11417,
11417,
11417,
11417,
11417,
11417,
11417,
11417,
11417,
11417,
11417,
11417,
11417,
11417,
11417,
11417,
11417,
11417,
11417,
11417,
11417,
11417,
11417,
11417,
11417,
11417,
11417,
11417,
11417,
11417,
11417,
11417,
11417,
11417,
11417,
11417,
11417,
11417,
11417,
11417,
11417,
11417,
11416,
11416,
11416,
11416,
11416,
11416,
11416,
11416,
11416,
11416,
11416,
11416,
11416,
11416,
11416,
11416,
11416,
11416,
11416,
11416,
11416,
11416,
11416,
11416,
11416,
11416,
11416,
11416,
11416,
11416,
11416,
11416,
11416,
11416,
11416,
11416,
11416,
11416,
11416,
11416,
11416,
11416,
11416,
11416,
11416,
11416,
11416,
11416,
11416,
11416,
11416,
11416,
11416,
11416,
11416,
11416,
11416,
11416,
11416,
11416,
11416,
11416,
11416,
11416,
11416,
11416,
11416,
11416,
11416,
11416,
11416,
11416,
11416,
11416,
11416,
11416,
11416,
11416,
11416,
11416,
11416,
11416,
11416,
11416,
11416,
11416,
11416,
11416,
11416,
11416,
11416,
11416,
11416,
11416,
11416,
11416,
11416,
11416,
11416,
11416,
11416,
11416,
11416,
11416,
11416,
11416,
11416,
11416,
11416,
11416,
11416,
11416,
11416,
11416,
11416,
11416,
11416,
11416,
11416,
11416,
11416,
11416,
11416,
11416,
11416,
11416,
11416,
11416,
11416,
11416,
11384,
11384,
11384,
11384,
11384,
11384,
11384,
11384,
11384,
11384,
11384,
11384,
11384,
11384,
11384,
11384,
11384,
11384,
11384,
11384,
11384,
11384,
11384,
11384,
11384,
11384,
11384,
11384,
11384,
11384,
11384,
11384,
11384,
11384,
11384,
11384,
11384,
11384,
11384,
11384,
11384,
11384,
11384,
11384,
11384,
11384,
11384,
11384,
11384,
11384,
11384,
11384,
11384,
11384,
11384,
11384,
11384,
11384,
11384,
11384,
11384,
11384,
11384,
11384,
11384,
11384,
11357,
11357,
11357,
11357,
11357,
11357,
11357,
11357,
11357,
11357,
11357,
11357,
11357,
11357,
11357,
11357,
11357,
11357,
11357,
1,
